(set-logic HORN)
(set-info :source |
    Benchmark: C_VC
    Output by Princess (http://www.philipp.ruemmer.org/princess.shtml)
|)
(set-info :status unknown)
(declare-fun inv_main10 (Int Int Int Int) Bool)
(declare-fun inv_main3 (Int) Bool)
(declare-fun inv_main47 (Int Int Int Int) Bool)
(declare-fun inv_main60 (Int Int Int Int) Bool)
(assert (forall ((var0 Int)) (inv_main3 var0 ) ) )
(assert (forall ((var0 Int)) (forall ((var1 Int)) (forall ((var2 Int)) (forall ((var3 Int)) (or (not (and (inv_main10 var3 var1 var0 var2 ) (and (= var0 2 ) (and (= var3 8656 ) (and (not (= var3 8640 ) ) (and (not (= var3 8512 ) ) (and (not (= var3 8466 ) ) (not (and (<= 0 (+ 8512 (* (- 1) var3 ) ) ) (<= 0 (+ (+ var0 (- 2) ) (- 1) ) ) ) ) ) ) ) ) ) ) ) (inv_main47 var3 var1 3 var2 ) ) ) ) ) ) )
(assert (forall ((var0 Int)) (forall ((var1 Int)) (forall ((var2 Int)) (forall ((var3 Int)) (or (not (and (inv_main10 var3 var1 var0 var2 ) (and (not (= var0 2 ) ) (and (= var3 8656 ) (and (not (= var3 8640 ) ) (and (not (= var3 8512 ) ) (and (not (= var3 8466 ) ) (not (and (<= 0 (+ 8512 (* (- 1) var3 ) ) ) (<= 0 (+ (+ var0 (- 2) ) (- 1) ) ) ) ) ) ) ) ) ) ) ) (inv_main47 var3 var1 var0 var2 ) ) ) ) ) ) )
(assert (forall ((var0 Int)) (forall ((var1 Int)) (forall ((var2 Int)) (forall ((var3 Int)) (or (not (and (inv_main10 var3 var1 var0 var2 ) (and (<= 0 (+ 8512 (* (- 1) var3 ) ) ) (<= 0 (+ (+ var0 (- 2) ) (- 1) ) ) ) ) ) (inv_main60 var3 var1 var0 var2 ) ) ) ) ) ) )
(assert (forall ((var0 Int)) (forall ((var1 Int)) (forall ((var2 Int)) (forall ((var3 Int)) (or (not (and (inv_main47 var3 var1 var0 var2 ) (and (= var0 5 ) (not (= var0 4 ) ) ) ) ) (inv_main60 var3 var1 var0 var2 ) ) ) ) ) ) )
(assert (forall ((var0 Int)) (forall ((var1 Int)) (forall ((var2 Int)) (forall ((var3 Int)) (or (not (and (inv_main10 var3 var1 var0 var2 ) (and (not (= var1 0 ) ) (and (= var0 0 ) (and (= var3 8466 ) (not (and (<= 0 (+ 8512 (* (- 1) var3 ) ) ) (<= 0 (+ (+ var0 (- 2) ) (- 1) ) ) ) ) ) ) ) ) ) (inv_main10 8656 var1 2 var2 ) ) ) ) ) ) )
(assert (forall ((var0 Int)) (forall ((var1 Int)) (forall ((var2 Int)) (forall ((var3 Int)) (or (not (and (inv_main10 var3 var1 var0 var2 ) (and (= var1 0 ) (and (= var0 0 ) (and (= var3 8466 ) (not (and (<= 0 (+ 8512 (* (- 1) var3 ) ) ) (<= 0 (+ (+ var0 (- 2) ) (- 1) ) ) ) ) ) ) ) ) ) (inv_main10 8512 var1 2 var2 ) ) ) ) ) ) )
(assert (forall ((var0 Int)) (forall ((var1 Int)) (forall ((var2 Int)) (forall ((var3 Int)) (or (not (and (inv_main10 var3 var1 var0 var2 ) (and (not (= var1 0 ) ) (and (not (= var0 0 ) ) (and (= var3 8466 ) (not (and (<= 0 (+ 8512 (* (- 1) var3 ) ) ) (<= 0 (+ (+ var0 (- 2) ) (- 1) ) ) ) ) ) ) ) ) ) (inv_main10 8656 var1 var0 var2 ) ) ) ) ) ) )
(assert (forall ((var0 Int)) (forall ((var1 Int)) (forall ((var2 Int)) (forall ((var3 Int)) (or (not (and (inv_main10 var3 var1 var0 var2 ) (and (= var1 0 ) (and (not (= var0 0 ) ) (and (= var3 8466 ) (not (and (<= 0 (+ 8512 (* (- 1) var3 ) ) ) (<= 0 (+ (+ var0 (- 2) ) (- 1) ) ) ) ) ) ) ) ) ) (inv_main10 8512 var1 var0 var2 ) ) ) ) ) ) )
(assert (forall ((var0 Int)) (forall ((var1 Int)) (forall ((var2 Int)) (forall ((var3 Int)) (forall ((var4 Int)) (or (not (and (inv_main10 var4 var2 var1 var3 ) (and (not (= var0 0 ) ) (and (= var4 8512 ) (and (not (= var4 8466 ) ) (not (and (<= 0 (+ 8512 (* (- 1) var4 ) ) ) (<= 0 (+ (+ var1 (- 2) ) (- 1) ) ) ) ) ) ) ) ) ) (inv_main10 8466 var2 var1 var0 ) ) ) ) ) ) ) )
(assert (forall ((var0 Int)) (forall ((var1 Int)) (forall ((var2 Int)) (forall ((var3 Int)) (forall ((var4 Int)) (or (not (and (inv_main10 var4 var2 var1 var3 ) (and (= var0 0 ) (and (= var4 8512 ) (and (not (= var4 8466 ) ) (not (and (<= 0 (+ 8512 (* (- 1) var4 ) ) ) (<= 0 (+ (+ var1 (- 2) ) (- 1) ) ) ) ) ) ) ) ) ) (inv_main10 8640 var2 var1 var0 ) ) ) ) ) ) ) )
(assert (forall ((var0 Int)) (forall ((var1 Int)) (forall ((var2 Int)) (forall ((var3 Int)) (or (not (and (inv_main10 var3 var1 var0 var2 ) (and (= var1 0 ) (and (= var0 3 ) (and (= var3 8640 ) (and (not (= var3 8512 ) ) (and (not (= var3 8466 ) ) (not (and (<= 0 (+ 8512 (* (- 1) var3 ) ) ) (<= 0 (+ (+ var0 (- 2) ) (- 1) ) ) ) ) ) ) ) ) ) ) ) (inv_main10 8656 var1 4 var2 ) ) ) ) ) ) )
(assert (forall ((var0 Int)) (forall ((var1 Int)) (forall ((var2 Int)) (forall ((var3 Int)) (or (not (and (inv_main10 var3 var1 var0 var2 ) (and (= var1 0 ) (and (not (= var0 3 ) ) (and (= var3 8640 ) (and (not (= var3 8512 ) ) (and (not (= var3 8466 ) ) (not (and (<= 0 (+ 8512 (* (- 1) var3 ) ) ) (<= 0 (+ (+ var0 (- 2) ) (- 1) ) ) ) ) ) ) ) ) ) ) ) (inv_main10 8656 var1 var0 var2 ) ) ) ) ) ) )
(assert (forall ((var0 Int)) (forall ((var1 Int)) (forall ((var2 Int)) (forall ((var3 Int)) (or (not (and (inv_main47 var3 var1 var0 var2 ) (and (not (= var1 0 ) ) (= var0 4 ) ) ) ) (inv_main10 8640 var1 5 var2 ) ) ) ) ) ) )
(assert (forall ((var0 Int)) (forall ((var1 Int)) (forall ((var2 Int)) (forall ((var3 Int)) (or (not (and (inv_main47 var3 var1 var0 var2 ) (and (not (= var1 0 ) ) (and (not (= var0 5 ) ) (not (= var0 4 ) ) ) ) ) ) (inv_main10 8640 var1 var0 var2 ) ) ) ) ) ) )
(assert (forall ((var0 Int)) (forall ((var1 Int)) (forall ((var2 Int)) (or (not (inv_main3 var2 ) ) (inv_main10 8466 var1 0 var0 ) ) ) ) ) )
(assert (forall ((var0 Int)) (forall ((var1 Int)) (forall ((var2 Int)) (forall ((var3 Int)) (not (inv_main60 var3 var1 var0 var2 ) ) ) ) ) ) )
(check-sat)
